# Solution for model GasLib-40
# Objective value = 1.0461644158684130e+01
loadshed[innode_1] 0
loadshed[innode_2] 0
loadshed[innode_3] 0
loadshed[innode_4] 0
loadshed[innode_5] 0
loadshed[innode_6] 0
loadshed[innode_7] 0
loadshed[innode_8] 0
loadshed[source_1] -2.5260096525948939e-01
loadshed[source_2] 1.3620797803143736e-01
loadshed[source_3] 1.8256811390703354e-01
loadshed[sink_1] 0
loadshed[sink_2] 0
loadshed[sink_3] 0
loadshed[sink_4] 0
loadshed[sink_5] 0
loadshed[sink_6] 0
loadshed[sink_7] 0
loadshed[sink_8] 0
loadshed[sink_9] 0
loadshed[sink_10] 0
loadshed[sink_11] 0
loadshed[sink_12] 6.3969289123164108e-01
loadshed[sink_13] 0
loadshed[sink_14] 0
loadshed[sink_15] 0
loadshed[sink_16] 0
loadshed[sink_17] 0
loadshed[sink_18] 0
loadshed[sink_19] 0
loadshed[sink_20] 0
loadshed[sink_21] 0
loadshed[sink_22] 0
loadshed[sink_23] 0
loadshed[sink_24] 0
loadshed[sink_25] 0
loadshed[sink_26] 0
loadshed[sink_27] 0
loadshed[sink_28] 0
loadshed[sink_29] 0
flow[source_1,sink_3] 1.9802403454258524e+02
flow[innode_1,sink_16] 1.6354166666666970e+01
flow[innode_6,sink_13] -1.4748867270183226e+01
flow[sink_13,sink_14] -3.1103033936849894e+01
flow[sink_14,sink_10] -4.7457200603516561e+01
flow[sink_25,sink_26] 173.796665500997
flow[sink_26,sink_9] 1.2288036552054884e+02
flow[sink_9,sink_18] 1.0652619885388216e+02
flow[sink_26,sink_4] 34.5621333137815
flow[sink_4,sink_20] -2.8345857006985739e+01
flow[sink_18,sink_6] 9.0172032187215493e+01
flow[sink_25,innode_8] -1.6531570120924889e+02
flow[sink_6,sink_7] 4.1109532187214882e+01
flow[sink_6,sink_22] 3.2708333333333641e+01
flow[sink_7,sink_24] 3.8600855841315877e+01
flow[sink_22,sink_1] 1.6354166666666970e+01
flow[sink_24,sink_21] 2.2246689174649205e+01
flow[sink_21,sink_12] 5.8925225079825374e+00
flow[sink_7,sink_5] -1.3845490320767354e+01
flow[sink_5,sink_17] -3.0199656987434196e+01
flow[sink_17,sink_4] -4.6553823654100867e+01
flow[sink_17,sink_8] 0
flow[sink_3,sink_23] 16.3541666666697
flow[sink_8,sink_20] -1.6354166666668334e+01
flow[sink_25,sink_20] 61.0541903403209
flow[sink_25,sink_15] -7.1140454028552838e+01
flow[sink_15,sink_29] -1.0384878736190376e+02
flow[sink_29,sink_28] 1.6354166666667879e+01
flow[sink_29,sink_2] 0
flow[sink_2,sink_15] -1.6354166666684250e+01
flow[sink_29,innode_7] -1.3655712069523838e+02
flow[innode_4,sink_19] 5.0510663656830921e+01
flow[sink_19,innode_3] 4.7101206485081313e+01
flow[innode_4,innode_5] 7.8717370280018940e+01
flow[sink_27,innode_5] -7.8717370280018940e+01
flow[sink_27,sink_19] 6.2363203613352269e+01
flow[sink_10,sink_11] 3.2708333333333641e+01
flow[sink_10,innode_2] -4.9418494118435554e+01
flow[sink_10,innode_3] -4.7101206485081313e+01
flow[innode_6,sink_25] 1.4748867270183226e+01
flow[sink_11,innode_1] 1.6354166666666970e+01
flow[sink_19,innode_2] 4.9418494118435554e+01
flow[source_3,innode_4] 1.2922803393684987e+02
flow[source_2,innode_7] 1.3655712069523838e+02
flow[sink_3,innode_8] 1.6531570120924889e+02
pressure[innode_1] 76.203261486529
pressure[innode_2] 7.8966934313357243e+01
pressure[innode_3] 7.8862634025229070e+01
pressure[innode_4] 81.01325
pressure[innode_5] 8.0959104041941615e+01
pressure[innode_6] 7.3973334273306236e+01
pressure[innode_7] 81.01325
pressure[innode_8] 8.0351331300447271e+01
pressure[source_1] 81.01325
pressure[source_2] 81.01325
pressure[source_3] 81.01325
pressure[sink_1] 4.6014855440875827e+01
pressure[sink_2] 74.26504204639
pressure[sink_3] 8.0351331300447271e+01
pressure[sink_4] 5.7338618106884120e+01
pressure[sink_5] 5.3309828317139420e+01
pressure[sink_6] 48.1159330512632
pressure[sink_7] 4.7551597164626514e+01
pressure[sink_8] 5.8278546554370038e+01
pressure[sink_9] 5.4378230165294475e+01
pressure[sink_10] 7.6354962794132547e+01
pressure[sink_11] 76.203261486529
pressure[sink_12] 1.0132500000000002e+00
pressure[sink_13] 7.4054642313802063e+01
pressure[sink_14] 7.4110303842424727e+01
pressure[sink_15] 7.4318434796156438e+01
pressure[sink_16] 7.5181611651711322e+01
pressure[sink_17] 55.5594844733128
pressure[sink_18] 5.0523794788084089e+01
pressure[sink_19] 7.8966934313357243e+01
pressure[sink_20] 5.9418201977958326e+01
pressure[sink_21] 3.1101320073532528e+00
pressure[sink_22] 4.7078624583230834e+01
pressure[sink_23] 8.0186613288787484e+01
pressure[sink_24] 3.35649342032314
pressure[sink_25] 7.3973334273306236e+01
pressure[sink_26] 6.1732937187192555e+01
pressure[sink_27] 8.0305895322677927e+01
pressure[sink_28] 77.0655997096909
pressure[sink_29] 7.7360881983308076e+01
interdiction[source_1,sink_3] 0
interdiction[innode_1,sink_16] 0
interdiction[innode_6,sink_13] 0
interdiction[sink_13,sink_14] 0
interdiction[sink_14,sink_10] 0
interdiction[sink_25,sink_26] 0
interdiction[sink_26,sink_9] 0
interdiction[sink_9,sink_18] 0
interdiction[sink_26,sink_4] 0
interdiction[sink_4,sink_20] 0
interdiction[sink_18,sink_6] 0
interdiction[sink_25,innode_8] 0
interdiction[sink_6,sink_7] 0
interdiction[sink_6,sink_22] 0
interdiction[sink_7,sink_24] 0
interdiction[sink_22,sink_1] 0
interdiction[sink_24,sink_21] 0
interdiction[sink_21,sink_12] 0
interdiction[sink_7,sink_5] 0
interdiction[sink_5,sink_17] 0
interdiction[sink_17,sink_4] 0
interdiction[sink_17,sink_8] 1
interdiction[sink_3,sink_23] 0
interdiction[sink_8,sink_20] 0
interdiction[sink_25,sink_20] 0
interdiction[sink_25,sink_15] 0
interdiction[sink_15,sink_29] 0
interdiction[sink_29,sink_28] 0
interdiction[sink_29,sink_2] 1
interdiction[sink_2,sink_15] 0
interdiction[sink_29,innode_7] 0
interdiction[innode_4,sink_19] 0
interdiction[sink_19,innode_3] 0
interdiction[innode_4,innode_5] 0
interdiction[sink_27,innode_5] 0
interdiction[sink_27,sink_19] 0
interdiction[sink_10,sink_11] 0
interdiction[sink_10,innode_2] 0
interdiction[sink_10,innode_3] 0
interdiction[innode_6,sink_25] 0
interdiction[sink_11,innode_1] 0
interdiction[sink_19,innode_2] 0
interdiction[source_3,innode_4] 0
interdiction[source_2,innode_7] 0
interdiction[sink_3,innode_8] 0
WCcheckFlow[source_1,sink_3] 39
WCcheckFlow[innode_1,sink_16] 1
WCcheckFlow[innode_6,sink_13] 13
WCcheckFlow[sink_13,sink_14] 12
WCcheckFlow[sink_14,sink_10] 11
WCcheckFlow[sink_25,sink_26] 15
WCcheckFlow[sink_26,sink_9] 11
WCcheckFlow[sink_9,sink_18] 10
WCcheckFlow[sink_26,sink_4] 3
WCcheckFlow[sink_4,sink_20] 2
WCcheckFlow[sink_18,sink_6] 9
WCcheckFlow[sink_25,innode_8] -36
WCcheckFlow[sink_6,sink_7] 6
WCcheckFlow[sink_6,sink_22] 2
WCcheckFlow[sink_7,sink_24] 3
WCcheckFlow[sink_22,sink_1] 1
WCcheckFlow[sink_24,sink_21] 2
WCcheckFlow[sink_21,sink_12] 1
WCcheckFlow[sink_7,sink_5] 2
WCcheckFlow[sink_5,sink_17] 1
WCcheckFlow[sink_17,sink_4] 0
WCcheckFlow[sink_17,sink_8] 0
WCcheckFlow[sink_3,sink_23] 1
WCcheckFlow[sink_8,sink_20] -1
WCcheckFlow[sink_25,sink_20] 0
WCcheckFlow[sink_25,sink_15] 6
WCcheckFlow[sink_15,sink_29] 4
WCcheckFlow[sink_29,sink_28] 1
WCcheckFlow[sink_29,sink_2] 0
WCcheckFlow[sink_2,sink_15] -1
WCcheckFlow[sink_29,innode_7] 2
WCcheckFlow[innode_4,sink_19] -4
WCcheckFlow[sink_19,innode_3] -5
WCcheckFlow[innode_4,innode_5] 2
WCcheckFlow[sink_27,innode_5] -1
WCcheckFlow[sink_27,sink_19] 0
WCcheckFlow[sink_10,sink_11] 3
WCcheckFlow[sink_10,innode_2] 1
WCcheckFlow[sink_10,innode_3] 6
WCcheckFlow[innode_6,sink_25] -14
WCcheckFlow[sink_11,innode_1] 2
WCcheckFlow[sink_19,innode_2] 0
WCcheckFlow[source_3,innode_4] -1
WCcheckFlow[source_2,innode_7] -1
WCcheckFlow[sink_3,innode_8] 37
